Version identifier: 22.1.1.0 | 2022-11-28 | 9160aff4d
CPXPARAM_Threads                                 1
CPXPARAM_MIP_Strategy_VariableSelect             3
CPXPARAM_TimeLimit                               599.99999300800005
1 of 1 MIP starts provided solutions.
MIP start 'm1' defined initial solution with objective 113.0000.
Tried aggregator 1 time.
MIP Presolve eliminated 325 rows and 1550 columns.
MIP Presolve modified 29 coefficients.
Reduced MIP has 1548 rows, 2480 columns, and 63515 nonzeros.
Reduced MIP has 2480 binaries, 0 generals, 0 SOSs, and 0 indicators.
Presolve time = 0.04 sec. (105.74 ticks)
Probing time = 0.01 sec. (11.16 ticks)
Tried aggregator 1 time.
Detecting symmetries...
MIP Presolve modified 7 coefficients.
Reduced MIP has 1548 rows, 2480 columns, and 63629 nonzeros.
Reduced MIP has 2480 binaries, 0 generals, 0 SOSs, and 0 indicators.
Presolve time = 0.04 sec. (95.39 ticks)
Probing time = 0.01 sec. (11.17 ticks)
Clique table members: 927.
MIP emphasis: balance optimality and feasibility.
MIP search method: dynamic search.
Parallel mode: none, using 1 thread.
Root relaxation solution time = 0.01 sec. (17.57 ticks)

        Nodes                                         Cuts/
   Node  Left     Objective  IInf  Best Integer    Best Bound    ItCnt     Gap

*     0+    0                          113.0000    48205.0000              --- 
      0     0      310.0000    20      113.0000      310.0000      350  174.34%
*     0+    0                          310.0000      310.0000             0.00%
      0     0        cutoff            310.0000      310.0000      350    0.00%
Elapsed time = 0.14 sec. (309.34 ticks, tree = 0.01 MB, solutions = 2)

Root node processing (before b&c):
  Real time             =    0.14 sec. (309.49 ticks)
Sequential b&c:
  Real time             =    0.00 sec. (0.00 ticks)
                          ------------
Total (root+branch&cut) =    0.14 sec. (309.49 ticks)
Primal:	310
Dual:	310
Status:	Optimal
Time:	0.14
Sequence:
	5
	5
	0
	9
	6
	9
	9
	9
	9
	9
	0
	1
	9
	9
	1
	9
	9
	4
	0
	6
	4
	9
	9
	9
	0
	5
	9
	6
	9
	9
	9
	1
	9
	9
	5
	9
	9
	9
	9
	9
	9
	9
	9
	4
	9
	9
	4
	9
	1
	9
	9
	9
	9
	5
	9
	4
	9
	0
	9
	9
	9
	9
	4
	9
	9
	4
	4
	9
	4
	9
	4
	4
	0
	4
	1
	9
	9
	1
	4
	1
	0
	1
	4
	0
	4
	1
	6
	0
	4
	1
	4
	0
	4
	5
	0
	4
	4
	1
	0
	4
	1
	0
	4
	1
	4
	1
	0
	1
	4
	4
	0
	4
	4
	0
	4
	5
	0
	9
	1
	4
	4
	9
	9
	4
	4
	9
	1
	1
	1
	9
	1
	1
	9
	1
	1
	1
	4
	1
	4
	0
	1
	4
	1
	1
	5
	9
	0
	9
	1
	0
	5
	9
	5
	0
	4
	9
	4
	4
	0
	5
	9
	0
	9
	9
	0
	9
	9
	9
	9
	0
	4
	9
	9
	0
	9
	9
	0
	9
	1
	0
	6
	9
	5
	5
	0
	9
	5
	0
	5
	9
	5
	0
	9
	5
	5
	9
	0
	5
	5
	9
	1
	5
	0
	9
	5
	9
	5
	1
	5
	9
	5
	0
	5
	9
	5
	5
	0
	9
	9
	5
	6
	0
	4
	5
	0
	9
	5
	5
	0
	9
	5
	5
	0
	9
	9
	9
	5
	0
	1
	9
	0
	5
	9
	5
	2
	5
	9
	0
	9
	9
	0
	9
	9
	4
	0
	9
	9
	9
	9
	9
	0
	5
	5
	9
	5
	5
	9
	9
	9
	4
	4
	1
	9
	9
	0
	4
	9
	5
	0
	4
	1
	4
	4
	9
	9
	1
	1
	1
	4
	1
	1
	1
	9
	1
	4
	0
	4
	4
	9
	9
	0
	9
	4
	9
	1
	1
	9
	5
	5
	0
